NAME: random98
TYPE: TSP
DIMENSION: 98
EDGE_WEIGHT_TYPE: EXPLICIT
EDGE_WEIGHT_FORMAT: FULL_MATRIX
EDGE_WEIGHT_SECTION
0 615 615 615 615 615 615 615 615 615 615 615 615 615 615 9 615 615 615 615 615 615 615 615 615 615 615 615 615 615 615 615 615 13 615 615 615 615 615 615 615 615 615 615 615 615 615 615 615 615 615 615 615 615 615 615 615 615 615 615 615 615 615 615 615 615 615 14 615 6 615 615 615 615 615 615 615 615 615 615 18 615 615 615 615 615 615 615 615 615 615 615 615 615 615 615 615 615
615 0 615 615 615 615 615 615 14 615 615 615 615 11 615 615 615 615 615 615 615 615 615 615 615 615 615 615 615 615 615 615 615 615 615 615 615 615 615 615 615 615 615 615 615 615 615 615 615 615 615 615 615 615 615 615 615 615 615 14 615 615 615 615 615 615 615 615 13 615 615 615 16 615 615 615 615 615 615 615 615 615 615 615 615 615 615 615 615 615 615 615 615 615 615 17 615 615
615 615 0 615 615 615 615 615 615 615 615 615 615 615 615 615 615 615 615 615 615 9 615 8 615 615 21 25 615 615 615 615 615 615 615 615 615 615 615 23 615 615 615 615 615 615 615 615 615 615 615 615 615 615 25 615 615 615 615 615 615 615 615 615 615 615 23 615 615 615 615 615 615 615 615 615 615 615 615 615 615 615 615 615 615 615 615 615 615 615 615 615 615 615 615 615 615 615
615 615 615 0 615 3 615 615 615 615 615 615 615 615 615 615 615 615 615 615 615 615 615 615 615 615 615 615 615 615 615 615 10 615 11 615 8 615 615 615 615 615 615 615 615 615 615 615 615 615 615 615 615 615 615 615 7 615 615 615 615 615 615 615 615 615 615 615 615 615 1 615 615 615 615 615 615 615 615 615 615 615 615 615 615 615 615 615 615 615 615 615 18 615 615 615 615 615
615 615 615 615 0 615 615 615 615 615 615 615 615 615 615 615 615 615 615 615 615 9 615 615 615 615 615 615 615 615 615 615 615 615 615 615 615 615 615 615 615 615 615 615 8 615 615 615 615 615 615 615 615 615 615 615 615 615 615 615 615 615 615 615 615 615 615 615 615 615 615 615 615 615 12 615 615 615 615 3 615 615 615 615 615 615 615 615 615 615 12 615 615 615 615 615 615 615
615 615 615 3 615 0 615 615 615 615 615 615 615 615 615 615 615 615 615 615 615 615 615 615 615 615 615 615 615 615 615 615 615 615 615 5 615 615 615 615 615 615 615 615 615 615 615 615 615 615 615 615 615 615 615 615 5 615 615 615 615 615 615 615 615 615 615 615 615 615 2 615 615 615 615 7 615 615 615 615 615 615 615 615 615 615 615 615 615 615 615 615 615 615 615 615 615 615
615 615 615 615 615 615 0 615 615 15 615 615 615 615 615 615 615 615 615 615 615 615 615 615 615 615 615 615 615 615 615 615 615 615 615 615 615 615 615 615 17 615 615 615 615 615 615 4 19 615 615 615 615 615 615 615 615 615 615 615 615 615 16 615 615 615 615 28 615 615 615 615 615 615 615 615 615 615 615 615 615 615 615 19 615 615 615 615 615 615 615 615 615 615 615 615 615 615
615 615 615 615 615 615 615 0 615 615 615 615 615 615 615 615 615 615 615 615 615 615 615 615 615 615 615 615 615 615 615 615 615 615 615 615 615 615 615 615 615 615 615 16 615 615 20 615 615 615 615 615 615 615 615 615 615 615 615 615 615 615 615 26 615 28 615 615 615 615 615 615 615 615 615 615 28 615 615 615 615 615 615 615 615 615 615 615 615 615 615 615 615 615 615 615 615 615
615 14 615 615 615 615 615 615 0 615 615 615 615 615 615 615 14 615 615 15 615 615 615 615 615 615 615 615 615 615 615 615 615 615 615 615 615 615 615 615 615 615 615 615 615 615 615 615 615 615 615 615 615 615 615 615 615 615 615 615 615 9 615 615 615 615 615 615 6 615 615 615 16 9 615 615 615 615 615 615 615 615 615 615 615 615 615 615 615 615 615 615 615 615 615 615 615 615
615 615 615 615 615 615 15 615 615 0 615 25 615 615 615 18 615 615 615 615 28 615 615 615 615 615 615 615 615 615 615 615 615 615 615 615 615 615 615 615 615 615 615 615 615 615 615 11 615 615 615 615 615 615 615 8 615 615 615 615 615 615 615 615 615 615 615 27 615 615 615 615 615 615 615 615 615 615 615 615 615 615 615 34 615 615 615 615 615 615 615 615 615 615 615 615 615 615
615 615 615 615 615 615 615 615 615 615 0 615 615 615 615 615 615 615 615 615 615 615 615 615 615 615 615 615 615 615 615 615 615 615 615 615 615 615 615 615 615 615 615 615 615 615 615 615 615 12 4 615 615 615 8 615 615 615 615 615 615 615 11 615 615 615 4 13 615 615 615 615 615 615 615 615 615 615 615 615 615 615 615 615 615 615 615 615 615 615 615 615 615 615 615 615 615 615
615 615 615 615 615 615 615 615 615 25 615 0 615 615 615 615 615 615 615 615 3 615 615 615 615 615 615 615 615 615 615 615 615 615 615 615 615 615 615 615 615 615 615 615 615 615 615 615 615 615 615 615 615 615 615 19 615 615 615 615 615 615 615 615 615 6 615 615 615 615 615 11 615 615 615 615 615 615 615 615 615 10 615 615 615 615 615 615 615 615 615 615 615 615 615 615 615 615
615 615 615 615 615 615 615 615 615 615 615 615 0 615 615 615 615 615 615 615 615 615 12 615 615 615 615 615 615 615 615 615 615 615 615 615 615 56 615 615 615 615 615 615 615 615 615 615 615 615 615 615 8 615 615 615 615 615 615 615 615 615 615 615 615 615 615 615 615 615 615 615 615 615 615 615 615 615 615 615 615 615 615 615 615 615 615 615 615 615 615 29 615 12 7 615 615 615
615 11 615 615 615 615 615 615 615 615 615 615 615 0 615 615 615 615 615 615 615 615 615 615 615 615 615 615 615 615 615 615 615 615 615 615 615 615 615 615 615 615 615 615 615 615 615 615 615 615 615 10 615 615 615 615 615 615 615 4 615 615 615 615 615 615 615 615 615 615 615 615 18 615 615 615 615 615 615 615 615 615 615 615 615 615 615 615 615 615 615 615 615 615 615 615 615 615
615 615 615 615 615 615 615 615 615 615 615 615 615 615 0 615 615 615 615 615 615 615 615 615 615 5 615 615 615 615 615 615 615 615 615 615 615 615 615 615 615 615 615 615 615 615 615 615 615 615 615 615 615 615 615 615 615 615 615 615 615 615 615 615 615 615 615 615 615 12 615 2 615 615 615 615 13 615 615 615 615 7 615 615 615 615 615 615 615 615 615 615 615 615 615 615 615 615
9 615 615 615 615 615 615 615 615 18 615 615 615 615 615 0 615 615 615 615 615 615 615 615 615 6 615 615 615 615 615 615 615 615 615 615 615 615 615 615 615 615 615 615 615 615 615 615 615 615 615 615 615 615 615 12 615 615 615 615 615 615 615 615 615 615 615 17 615 11 615 615 615 615 615 615 615 615 615 615 615 12 615 615 615 615 615 615 615 615 615 615 615 615 615 615 615 615
615 615 615 615 615 615 615 615 14 615 615 615 615 615 615 615 0 615 615 615 615 615 615 615 615 615 615 615 615 615 615 615 615 615 615 615 615 615 615 615 615 615 615 615 615 615 615 615 615 615 615 615 615 615 615 615 615 615 615 615 615 9 615 615 615 615 615 615 615 22 615 615 615 13 615 615 615 615 615 615 4 615 615 615 615 615 615 615 23 615 615 615 7 615 615 615 615 615
615 615 615 615 615 615 615 615 615 615 615 615 615 615 615 615 615 0 615 615 615 615 615 615 615 615 615 615 615 615 615 615 615 615 615 615 615 32 615 615 615 615 615 615 615 615 615 615 615 615 615 10 615 615 615 615 615 615 615 9 615 615 615 615 615 615 615 615 615 615 615 615 615 615 615 615 615 615 615 615 615 615 615 615 615 615 615 615 615 615 615 615 615 615 615 615 615 615
615 615 615 615 615 615 615 615 615 615 615 615 615 615 615 615 615 615 0 615 615 615 615 615 615 615 615 615 615 615 615 615 615 615 615 615 615 615 10 615 615 615 615 615 615 615 615 615 615 615 615 615 615 615 615 615 615 615 615 615 615 615 615 615 615 615 615 615 615 615 615 615 615 615 615 16 615 615 615 615 615 615 615 615 13 9 4 13 615 615 615 15 615 615 615 615 615 615
615 615 615 615 615 615 615 615 15 615 615 615 615 615 615 615 615 615 615 0 615 615 615 615 615 615 615 615 615 615 615 615 615 615 615 615 615 615 615 615 615 615 615 615 615 615 17 615 615 615 615 615 615 615 615 615 615 615 615 615 615 11 615 615 19 615 615 615 615 615 615 615 10 615 615 615 615 615 615 615 615 615 615 615 615 615 615 615 615 615 615 615 615 615 615 615 615 12
615 615 615 615 615 615 615 615 615 28 615 3 615 615 615 615 615 615 615 615 0 615 615 615 615 615 615 615 615 615 615 615 615 615 615 615 615 615 615 615 615 615 615 615 615 615 615 615 615 615 615 615 615 615 615 615 615 615 615 615 615 615 615 6 615 5 615 615 615 615 615 615 615 615 615 615 615 615 615 615 615 615 615 62 615 615 615 615 615 615 615 615 615 615 615 615 615 615
615 615 9 615 9 615 615 615 615 615 615 615 615 615 615 615 615 615 615 615 615 0 615 10 23 615 615 30 615 615 17 615 615 615 615 615 615 615 615 615 615 615 615 615 615 615 615 615 615 615 615 615 615 615 615 615 615 615 615 615 615 615 615 615 615 615 615 615 615 615 615 615 615 615 615 615 615 615 615 11 615 615 615 615 615 615 615 615 615 615 10 615 615 615 615 615 615 615
615 615 615 615 615 615 615 615 615 615 615 615 12 615 615 615 615 615 615 615 615 615 0 615 13 615 615 615 615 615 615 615 615 615 615 615 615 615 615 615 615 615 615 615 615 615 615 615 615 615 615 615 615 615 615 615 615 615 615 615 615 615 615 615 615 615 615 615 615 615 615 615 615 615 615 615 615 615 615 615 615 615 615 615 615 615 615 615 615 615 615 615 615 3 615 615 615 615
615 615 8 615 615 615 615 615 615 615 615 615 615 615 615 615 615 615 615 615 615 10 615 0 615 615 18 615 615 615 615 615 615 615 13 615 615 615 615 615 615 615 615 615 615 615 615 615 615 615 615 615 615 615 615 615 615 615 615 615 615 615 615 615 615 615 615 615 615 615 615 615 615 615 1 615 615 615 615 615 615 615 615 615 615 615 615 615 615 615 1 615 615 615 615 615 615 615
615 615 615 615 615 615 615 615 615 615 615 615 615 615 615 615 615 615 615 615 615 23 13 615 0 615 615 53 615 615 6 615 615 615 615 615 615 615 615 615 615 615 615 615 615 615 615 615 615 615 615 615 615 615 615 615 615 6 615 615 615 615 615 615 615 615 615 615 615 615 615 615 615 615 615 615 615 615 615 615 615 615 615 615 615 615 615 615 615 615 615 615 615 10 615 615 615 615
615 615 615 615 615 615 615 615 615 615 615 615 615 615 5 6 615 615 615 615 615 615 615 615 615 0 615 615 615 615 615 615 615 615 615 615 615 615 615 615 615 615 615 615 615 615 615 615 615 615 615 615 615 615 615 615 615 615 615 615 615 615 615 615 615 615 615 615 615 10 615 615 615 615 615 615 615 615 615 615 615 8 615 615 615 615 615 615 615 615 615 615 615 615 615 615 615 615
615 615 21 615 615 615 615 615 615 615 615 615 615 615 615 615 615 615 615 615 615 615 615 18 615 615 0 615 615 615 615 615 4 615 7 615 615 615 615 615 615 615 9 615 615 615 615 615 615 615 615 615 615 615 12 615 615 615 615 615 615 615 615 615 615 615 615 615 615 615 615 615 615 615 615 615 615 4 615 615 615 615 615 615 615 615 615 615 615 615 615 615 615 615 615 615 615 615
615 615 25 615 615 615 615 615 615 615 615 615 615 615 615 615 615 615 615 615 615 30 615 615 53 615 615 0 615 615 615 615 615 615 615 615 615 615 615 12 615 615 615 615 615 615 615 615 615 615 615 615 615 615 615 615 615 615 615 615 615 615 615 615 615 615 615 615 615 615 615 615 615 615 615 615 615 615 11 615 615 615 615 25 615 615 615 615 615 19 615 615 615 615 615 615 615 615
615 615 615 615 615 615 615 615 615 615 615 615 615 615 615 615 615 615 615 615 615 615 615 615 615 615 615 615 0 615 615 615 615 615 615 615 615 615 615 615 615 615 615 615 4 8 615 615 615 615 615 615 615 615 615 615 615 615 615 615 615 615 615 615 615 615 615 615 615 615 615 615 615 615 15 615 615 615 615 615 615 615 5 615 615 615 615 615 615 615 615 615 615 615 615 615 615 615
615 615 615 615 615 615 615 615 615 615 615 615 615 615 615 615 615 615 615 615 615 615 615 615 615 615 615 615 615 0 615 615 615 615 615 615 615 615 615 615 615 615 615 615 615 615 615 615 615 615 615 615 15 615 615 615 615 615 615 615 615 615 615 615 615 615 615 615 615 615 615 615 615 615 615 615 615 615 615 615 615 615 615 615 615 6 615 3 615 615 615 615 615 615 615 615 9 615
615 615 615 615 615 615 615 615 615 615 615 615 615 615 615 615 615 615 615 615 615 17 615 615 6 615 615 615 615 615 0 615 615 615 615 615 615 615 615 615 615 615 615 615 12 615 615 615 615 615 615 615 615 615 615 615 615 6 615 615 615 615 615 615 615 615 615 615 615 615 615 615 615 615 615 615 615 615 615 7 615 615 615 615 615 615 615 615 615 615 615 615 615 615 615 615 615 615
615 615 615 615 615 615 615 615 615 615 615 615 615 615 615 615 615 615 615 615 615 615 615 615 615 615 615 615 615 615 615 0 615 615 615 12 615 615 615 615 615 615 615 615 615 12 615 615 615 615 615 615 615 615 615 615 615 615 615 615 615 615 615 615 615 615 615 615 615 615 615 615 615 615 615 16 615 615 615 615 615 615 615 615 615 6 8 615 615 615 615 615 615 615 615 615 5 615
615 615 615 10 615 615 615 615 615 615 615 615 615 615 615 615 615 615 615 615 615 615 615 615 615 615 4 615 615 615 615 615 0 615 9 615 615 615 615 615 615 615 615 615 615 615 615 615 615 615 615 615 615 615 615 615 615 615 615 615 615 615 615 615 615 615 615 615 615 615 615 615 615 615 615 615 615 1 615 615 615 615 615 615 615 615 615 615 615 615 615 615 17 615 615 615 615 615
13 615 615 615 615 615 615 615 615 615 615 615 615 615 615 615 615 615 615 615 615 615 615 615 615 615 615 615 615 615 615 615 615 0 615 615 615 615 615 615 615 615 13 615 615 615 615 615 615 6 615 615 615 615 615 615 615 615 615 615 615 615 615 615 615 615 615 4 615 615 615 615 615 615 615 615 615 615 615 615 16 615 615 615 615 615 615 615 615 615 615 615 615 615 615 615 615 615
615 615 615 11 615 615 615 615 615 615 615 615 615 615 615 615 615 615 615 615 615 615 615 13 615 615 7 615 615 615 615 615 9 615 0 615 7 615 615 615 615 615 615 615 615 615 615 615 615 615 615 615 615 615 615 615 615 615 615 615 615 615 615 615 615 615 615 615 615 615 615 615 615 615 13 615 615 615 615 615 615 615 615 615 615 615 615 615 615 615 615 615 615 615 615 615 615 615
615 615 615 615 615 5 615 615 615 615 615 615 615 615 615 615 615 615 615 615 615 615 615 615 615 615 615 615 615 615 615 12 615 615 615 0 6 615 615 615 615 615 615 615 615 11 615 615 615 615 615 615 615 615 615 615 615 615 615 615 615 615 615 615 615 615 615 615 615 615 6 615 615 615 615 10 615 615 615 615 615 615 615 615 615 615 615 615 615 615 615 615 615 615 615 615 615 615
615 615 615 8 615 615 615 615 615 615 615 615 615 615 615 615 615 615 615 615 615 615 615 615 615 615 615 615 615 615 615 615 615 615 7 6 0 615 615 615 615 615 615 615 615 9 615 615 615 615 615 615 615 615 615 615 615 615 615 615 615 615 615 615 615 615 615 615 615 615 8 615 615 615 16 615 615 615 615 615 615 615 615 615 615 615 615 615 615 615 615 615 615 615 615 615 615 615
615 615 615 615 615 615 615 615 615 615 615 615 56 615 615 615 615 32 615 615 615 615 615 615 615 615 615 615 615 615 615 615 615 615 615 615 615 0 20 615 615 615 615 615 615 615 615 615 615 615 615 615 615 615 615 615 615 615 615 30 615 615 615 615 615 615 615 615 615 615 615 615 615 615 615 615 615 615 615 615 615 615 615 615 615 615 615 615 615 615 615 27 615 615 615 16 615 615
615 615 615 615 615 615 615 615 615 615 615 615 615 615 615 615 615 615 10 615 615 615 615 615 615 615 615 615 615 615 615 615 615 615 615 615 615 20 0 615 615 615 615 615 615 615 615 615 615 615 615 615 615 615 615 615 615 615 615 615 615 615 615 615 615 615 615 615 615 615 615 615 615 615 615 615 615 615 615 615 615 615 615 615 10 615 615 615 615 615 615 21 615 615 615 10 615 615
615 615 23 615 615 615 615 615 615 615 615 615 615 615 615 615 615 615 615 615 615 615 615 615 615 615 615 12 615 615 615 615 615 615 615 615 615 615 615 0 8 615 615 615 615 615 615 615 615 615 12 615 615 7 615 615 615 615 615 615 615 615 10 615 615 615 12 615 615 615 615 615 615 615 615 615 615 615 12 615 615 615 615 615 615 615 615 615 615 615 615 615 615 615 615 615 615 615
615 615 615 615 615 615 17 615 615 615 615 615 615 615 615 615 615 615 615 615 615 615 615 615 615 615 615 615 615 615 615 615 615 615 615 615 615 615 615 8 0 615 615 615 615 615 615 615 16 615 615 615 615 4 615 615 615 615 11 615 615 615 6 615 615 615 615 615 615 615 615 615 615 615 615 615 615 615 615 615 615 615 615 615 615 615 615 615 615 615 615 615 615 615 615 615 615 615
615 615 615 615 615 615 615 615 615 615 615 615 615 615 615 615 615 615 615 615 615 615 615 615 615 615 615 615 615 615 615 615 615 615 615 615 615 615 615 615 615 0 615 615 615 615 615 615 615 615 615 615 615 615 615 615 615 615 615 615 615 615 615 615 615 615 615 615 615 10 615 615 615 615 615 615 2 615 615 615 615 615 615 615 615 615 615 615 5 615 615 615 615 615 615 615 615 615
615 615 615 615 615 615 615 615 615 615 615 615 615 615 615 615 615 615 615 615 615 615 615 615 615 615 9 615 615 615 615 615 615 13 615 615 615 615 615 615 615 615 0 615 615 615 615 615 615 9 615 615 615 615 9 615 615 615 615 615 615 615 615 615 615 615 615 615 615 615 615 615 615 615 615 615 615 6 615 615 17 615 615 615 615 615 615 615 615 615 615 615 16 615 615 615 615 615
615 615 615 615 615 615 615 16 615 615 615 615 615 615 615 615 615 615 615 615 615 615 615 615 615 615 615 615 615 615 615 615 615 615 615 615 615 615 615 615 615 615 615 0 615 615 10 615 615 615 615 40 615 615 615 615 615 615 615 615 615 615 615 615 13 615 615 615 615 615 615 615 615 615 615 615 615 615 615 615 615 615 615 615 615 615 615 615 615 615 615 615 615 615 615 615 615 615
615 615 615 615 8 615 615 615 615 615 615 615 615 615 615 615 615 615 615 615 615 615 615 615 615 615 615 615 4 615 12 615 615 615 615 615 615 615 615 615 615 615 615 615 0 615 615 615 615 615 615 615 615 615 615 615 615 12 615 615 615 615 615 615 615 615 615 615 615 615 615 615 615 615 14 615 615 615 615 8 615 615 9 615 615 615 615 615 615 615 615 615 615 615 615 615 615 615
615 615 615 615 615 615 615 615 615 615 615 615 615 615 615 615 615 615 615 615 615 615 615 615 615 615 615 615 8 615 615 12 615 615 615 11 9 615 615 615 615 615 615 615 615 0 615 615 615 615 615 615 615 615 615 615 615 615 615 615 615 615 615 615 615 615 615 615 615 615 615 615 615 615 17 615 615 615 615 615 615 615 8 615 615 615 615 615 615 615 615 615 615 615 615 615 12 615
615 615 615 615 615 615 615 20 615 615 615 615 615 615 615 615 615 615 615 17 615 615 615 615 615 615 615 615 615 615 615 615 615 615 615 615 615 615 615 615 615 615 615 10 615 615 0 615 615 615 615 615 615 615 615 615 615 615 615 615 615 615 615 615 16 615 615 615 615 615 615 615 615 615 615 615 19 615 615 615 615 615 615 615 615 615 615 615 13 615 615 615 615 615 615 615 615 10
615 615 615 615 615 615 4 615 615 11 615 615 615 615 615 615 615 615 615 615 615 615 615 615 615 615 615 615 615 615 615 615 615 615 615 615 615 615 615 615 615 615 615 615 615 615 615 0 615 615 615 615 615 615 615 615 615 615 615 615 615 615 615 615 615 615 615 615 615 615 615 615 615 615 615 615 615 615 615 615 615 615 615 23 615 615 615 615 615 615 615 615 615 615 615 615 615 615
615 615 615 615 615 615 19 615 615 615 615 615 615 615 615 615 615 615 615 615 615 615 615 615 615 615 615 615 615 615 615 615 615 615 615 615 615 615 615 615 16 615 615 615 615 615 615 615 0 615 615 615 615 615 615 615 615 615 7 615 615 615 615 615 615 615 615 615 615 615 615 615 615 615 615 615 615 615 615 615 615 615 615 3 615 615 615 615 615 3 615 615 615 615 615 615 615 615
615 615 615 615 615 615 615 615 615 615 12 615 615 615 615 615 615 615 615 615 615 615 615 615 615 615 615 615 615 615 615 615 615 6 615 615 615 615 615 615 615 615 9 615 615 615 615 615 615 0 615 615 615 615 7 615 615 615 615 615 615 615 615 615 615 615 615 7 615 615 615 615 615 615 615 615 615 615 615 615 615 615 615 615 615 615 615 615 615 615 615 615 615 615 615 615 615 615
615 615 615 615 615 615 615 615 615 615 4 615 615 615 615 615 615 615 615 615 615 615 615 615 615 615 615 615 615 615 615 615 615 615 615 615 615 615 615 12 615 615 615 615 615 615 615 615 615 615 0 615 615 615 615 615 615 615 615 615 615 615 8 615 615 615 2 615 615 615 615 615 615 615 615 615 615 615 615 615 615 615 615 615 615 615 615 615 615 615 615 615 615 615 615 615 615 615
615 615 615 615 615 615 615 615 615 615 615 615 615 10 615 615 615 10 615 615 615 615 615 615 615 615 615 615 615 615 615 615 615 615 615 615 615 615 615 615 615 615 615 40 615 615 615 615 615 615 615 0 615 615 615 615 615 615 615 10 615 615 615 615 27 615 615 615 615 615 615 615 21 615 615 615 615 615 615 615 615 615 615 615 615 615 615 615 615 615 615 615 615 615 615 615 615 615
615 615 615 615 615 615 615 615 615 615 615 615 8 615 615 615 615 615 615 615 615 615 615 615 615 615 615 615 615 15 615 615 615 615 615 615 615 615 615 615 615 615 615 615 615 615 615 615 615 615 615 615 0 615 615 615 615 615 615 615 615 615 615 615 615 615 615 615 615 615 615 615 615 615 615 615 615 615 615 615 615 615 19 615 615 615 615 16 615 615 615 20 615 615 11 615 16 615
615 615 615 615 615 615 615 615 615 615 615 615 615 615 615 615 615 615 615 615 615 615 615 615 615 615 615 615 615 615 615 615 615 615 615 615 615 615 615 7 4 615 615 615 615 615 615 615 615 615 615 615 615 0 615 615 615 615 9 615 615 615 615 615 615 615 615 615 615 615 615 615 615 615 615 615 615 615 8 615 615 615 615 615 615 615 615 615 615 615 615 615 615 615 615 615 615 615
615 615 25 615 615 615 615 615 615 615 8 615 615 615 615 615 615 615 615 615 615 615 615 615 615 615 12 615 615 615 615 615 615 615 615 615 615 615 615 615 615 615 9 615 615 615 615 615 615 7 615 615 615 615 0 615 615 615 615 615 615 615 615 615 615 615 10 615 615 615 615 615 615 615 615 615 615 615 615 615 615 615 615 615 615 615 615 615 615 615 615 615 615 615 615 615 615 615
615 615 615 615 615 615 615 615 615 8 615 19 615 615 615 12 615 615 615 615 615 615 615 615 615 615 615 615 615 615 615 615 615 615 615 615 615 615 615 615 615 615 615 615 615 615 615 615 615 615 615 615 615 615 615 0 615 615 615 615 615 615 615 615 615 615 615 615 615 615 615 615 615 615 615 615 615 615 615 615 615 11 615 615 615 615 615 615 615 615 615 615 615 615 615 615 615 615
615 615 615 7 615 5 615 615 615 615 615 615 615 615 615 615 615 615 615 615 615 615 615 615 615 615 615 615 615 615 615 615 615 615 615 615 615 615 615 615 615 615 615 615 615 615 615 615 615 615 615 615 615 615 615 615 0 615 615 615 13 615 615 615 615 615 615 615 615 615 615 615 615 615 615 3 615 615 615 615 615 615 615 615 615 615 615 615 615 615 615 615 16 615 615 615 615 615
615 615 615 615 615 615 615 615 615 615 615 615 615 615 615 615 615 615 615 615 615 615 615 615 6 615 615 615 615 615 6 615 615 615 615 615 615 615 615 615 615 615 615 615 12 615 615 615 615 615 615 615 615 615 615 615 615 0 615 615 615 615 615 615 615 615 615 615 615 615 615 615 615 615 615 615 615 615 615 615 615 615 16 615 615 615 615 615 615 615 615 615 615 10 12 615 615 615
615 615 615 615 615 615 615 615 615 615 615 615 615 615 615 615 615 615 615 615 615 615 615 615 615 615 615 615 615 615 615 615 615 615 615 615 615 615 615 615 11 615 615 615 615 615 615 615 7 615 615 615 615 9 615 615 615 615 0 615 615 615 615 615 615 615 615 615 615 615 615 615 615 615 615 615 615 615 4 615 615 615 615 615 615 615 615 615 615 5 615 615 615 615 615 615 615 615
615 14 615 615 615 615 615 615 615 615 615 615 615 4 615 615 615 9 615 615 615 615 615 615 615 615 615 615 615 615 615 615 615 615 615 615 615 30 615 615 615 615 615 615 615 615 615 615 615 615 615 10 615 615 615 615 615 615 615 0 615 615 615 615 615 615 615 615 615 615 615 615 615 615 615 615 615 615 615 615 615 615 615 615 615 615 615 615 615 615 615 615 615 615 615 24 615 615
615 615 615 615 615 615 615 615 615 615 615 615 615 615 615 615 615 615 615 615 615 615 615 615 615 615 615 615 615 615 615 615 615 615 615 615 615 615 615 615 615 615 615 615 615 615 615 615 615 615 615 615 615 615 615 615 13 615 615 615 0 615 615 615 615 615 615 615 9 615 615 615 615 3 615 12 615 615 615 615 615 615 615 615 11 615 615 615 615 615 615 615 12 615 615 615 615 615
615 615 615 615 615 615 615 615 9 615 615 615 615 615 615 615 9 615 615 11 615 615 615 615 615 615 615 615 615 615 615 615 615 615 615 615 615 615 615 615 615 615 615 615 615 615 615 615 615 615 615 615 615 615 615 615 615 615 615 615 615 0 615 615 615 615 615 615 615 615 615 615 615 615 615 615 615 615 615 615 615 615 615 615 615 615 615 615 20 615 615 615 615 615 615 615 615 16
615 615 615 615 615 615 16 615 615 615 11 615 615 615 615 615 615 615 615 615 615 615 615 615 615 615 615 615 615 615 615 615 615 615 615 615 615 615 615 10 6 615 615 615 615 615 615 615 615 615 8 615 615 615 615 615 615 615 615 615 615 615 0 615 615 615 615 21 615 615 615 615 615 615 615 615 615 615 615 615 615 615 615 615 615 615 615 615 615 615 615 615 615 615 615 615 615 615
615 615 615 615 615 615 615 26 615 615 615 615 615 615 615 615 615 615 615 615 6 615 615 615 615 615 615 615 615 615 615 615 615 615 615 615 615 615 615 615 615 615 615 615 615 615 615 615 615 615 615 615 615 615 615 615 615 615 615 615 615 615 615 0 615 7 615 615 615 615 615 615 615 615 615 615 615 615 615 615 615 615 615 68 615 615 615 615 615 615 615 615 615 615 615 615 615 615
615 615 615 615 615 615 615 615 615 615 615 615 615 615 615 615 615 615 615 19 615 615 615 615 615 615 615 615 615 615 615 615 615 615 615 615 615 615 615 615 615 615 615 13 615 615 16 615 615 615 615 27 615 615 615 615 615 615 615 615 615 615 615 615 0 615 615 615 615 615 615 615 17 615 615 615 615 615 615 615 615 615 615 615 615 615 615 615 615 615 615 615 615 615 615 615 615 615
615 615 615 615 615 615 615 28 615 615 615 6 615 615 615 615 615 615 615 615 5 615 615 615 615 615 615 615 615 615 615 615 615 615 615 615 615 615 615 615 615 615 615 615 615 615 615 615 615 615 615 615 615 615 615 615 615 615 615 615 615 615 615 7 615 0 615 615 615 615 615 9 615 615 615 615 18 615 615 615 615 615 615 615 615 615 615 615 615 615 615 615 615 615 615 615 615 615
615 615 23 615 615 615 615 615 615 615 4 615 615 615 615 615 615 615 615 615 615 615 615 615 615 615 615 615 615 615 615 615 615 615 615 615 615 615 615 12 615 615 615 615 615 615 615 615 615 615 2 615 615 615 10 615 615 615 615 615 615 615 615 615 615 615 0 615 615 615 615 615 615 615 615 615 615 615 615 615 615 615 615 615 615 615 615 615 615 615 615 615 615 615 615 615 615 615
14 615 615 615 615 615 28 615 615 27 13 615 615 615 615 17 615 615 615 615 615 615 615 615 615 615 615 615 615 615 615 615 615 4 615 615 615 615 615 615 615 615 615 615 615 615 615 615 615 7 615 615 615 615 615 615 615 615 615 615 615 615 21 615 615 615 615 0 615 615 615 615 615 615 615 615 615 615 615 615 615 615 615 615 615 615 615 615 615 615 615 615 615 615 615 615 615 615
615 13 615 615 615 615 615 615 6 615 615 615 615 615 615 615 615 615 615 615 615 615 615 615 615 615 615 615 615 615 615 615 615 615 615 615 615 615 615 615 615 615 615 615 615 615 615 615 615 615 615 615 615 615 615 615 615 615 615 615 9 615 615 615 615 615 615 615 0 615 615 615 615 7 615 615 615 615 615 615 615 615 615 615 15 615 615 615 615 615 615 615 615 615 615 20 615 615
6 615 615 615 615 615 615 615 615 615 615 615 615 615 12 11 22 615 615 615 615 615 615 615 615 10 615 615 615 615 615 615 615 615 615 615 615 615 615 615 615 10 615 615 615 615 615 615 615 615 615 615 615 615 615 615 615 615 615 615 615 615 615 615 615 615 615 615 615 0 615 615 615 615 615 615 10 615 615 615 20 615 615 615 615 615 615 615 14 615 615 615 615 615 615 615 615 615
615 615 615 1 615 2 615 615 615 615 615 615 615 615 615 615 615 615 615 615 615 615 615 615 615 615 615 615 615 615 615 615 615 615 615 6 8 615 615 615 615 615 615 615 615 615 615 615 615 615 615 615 615 615 615 615 615 615 615 615 615 615 615 615 615 615 615 615 615 615 0 615 615 615 615 615 615 615 615 615 615 615 615 615 615 615 615 615 615 615 615 615 615 615 615 615 615 615
615 615 615 615 615 615 615 615 615 615 615 11 615 615 2 615 615 615 615 615 615 615 615 615 615 615 615 615 615 615 615 615 615 615 615 615 615 615 615 615 615 615 615 615 615 615 615 615 615 615 615 615 615 615 615 615 615 615 615 615 615 615 615 615 615 9 615 615 615 615 615 0 615 615 615 615 13 615 615 615 615 7 615 615 615 615 615 615 615 615 615 615 615 615 615 615 615 615
615 16 615 615 615 615 615 615 16 615 615 615 615 18 615 615 615 615 615 10 615 615 615 615 615 615 615 615 615 615 615 615 615 615 615 615 615 615 615 615 615 615 615 615 615 615 615 615 615 615 615 21 615 615 615 615 615 615 615 615 615 615 615 615 17 615 615 615 615 615 615 615 0 615 615 615 615 615 615 615 615 615 615 615 615 615 615 615 615 615 615 615 615 615 615 615 615 615
615 615 615 615 615 615 615 615 9 615 615 615 615 615 615 615 13 615 615 615 615 615 615 615 615 615 615 615 615 615 615 615 615 615 615 615 615 615 615 615 615 615 615 615 615 615 615 615 615 615 615 615 615 615 615 615 615 615 615 615 3 615 615 615 615 615 615 615 7 615 615 615 615 0 615 615 615 615 615 615 615 615 615 615 615 615 615 615 615 615 615 615 11 615 615 615 615 615
615 615 615 615 12 615 615 615 615 615 615 615 615 615 615 615 615 615 615 615 615 615 615 1 615 615 615 615 15 615 615 615 615 615 13 615 16 615 615 615 615 615 615 615 14 17 615 615 615 615 615 615 615 615 615 615 615 615 615 615 615 615 615 615 615 615 615 615 615 615 615 615 615 615 0 615 615 615 615 615 615 615 615 615 615 615 615 615 615 615 1 615 615 615 615 615 615 615
615 615 615 615 615 7 615 615 615 615 615 615 615 615 615 615 615 615 16 615 615 615 615 615 615 615 615 615 615 615 615 16 615 615 615 10 615 615 615 615 615 615 615 615 615 615 615 615 615 615 615 615 615 615 615 615 3 615 615 615 12 615 615 615 615 615 615 615 615 615 615 615 615 615 615 0 615 615 615 615 615 615 615 615 10 615 15 615 615 615 615 615 615 615 615 615 615 615
615 615 615 615 615 615 615 28 615 615 615 615 615 615 13 615 615 615 615 615 615 615 615 615 615 615 615 615 615 615 615 615 615 615 615 615 615 615 615 615 615 2 615 615 615 615 19 615 615 615 615 615 615 615 615 615 615 615 615 615 615 615 615 615 615 18 615 615 615 10 615 13 615 615 615 615 0 615 615 615 615 615 615 615 615 615 615 615 7 615 615 615 615 615 615 615 615 615
615 615 615 615 615 615 615 615 615 615 615 615 615 615 615 615 615 615 615 615 615 615 615 615 615 615 4 615 615 615 615 615 1 615 615 615 615 615 615 615 615 615 6 615 615 615 615 615 615 615 615 615 615 615 615 615 615 615 615 615 615 615 615 615 615 615 615 615 615 615 615 615 615 615 615 615 615 0 615 615 615 615 615 615 615 615 615 615 615 615 615 615 17 615 615 615 615 615
615 615 615 615 615 615 615 615 615 615 615 615 615 615 615 615 615 615 615 615 615 615 615 615 615 615 615 11 615 615 615 615 615 615 615 615 615 615 615 12 615 615 615 615 615 615 615 615 615 615 615 615 615 8 615 615 615 615 4 615 615 615 615 615 615 615 615 615 615 615 615 615 615 615 615 615 615 615 0 615 615 615 615 615 615 615 615 615 615 8 615 615 615 615 615 615 615 615
615 615 615 615 3 615 615 615 615 615 615 615 615 615 615 615 615 615 615 615 615 11 615 615 615 615 615 615 615 615 7 615 615 615 615 615 615 615 615 615 615 615 615 615 8 615 615 615 615 615 615 615 615 615 615 615 615 615 615 615 615 615 615 615 615 615 615 615 615 615 615 615 615 615 615 615 615 615 615 0 615 615 615 615 615 615 615 615 615 615 615 615 615 615 615 615 615 615
18 615 615 615 615 615 615 615 615 615 615 615 615 615 615 615 4 615 615 615 615 615 615 615 615 615 615 615 615 615 615 615 615 16 615 615 615 615 615 615 615 615 17 615 615 615 615 615 615 615 615 615 615 615 615 615 615 615 615 615 615 615 615 615 615 615 615 615 615 20 615 615 615 615 615 615 615 615 615 615 0 615 615 615 615 615 615 615 615 615 615 615 7 615 615 615 615 615
615 615 615 615 615 615 615 615 615 615 615 10 615 615 7 12 615 615 615 615 615 615 615 615 615 8 615 615 615 615 615 615 615 615 615 615 615 615 615 615 615 615 615 615 615 615 615 615 615 615 615 615 615 615 615 11 615 615 615 615 615 615 615 615 615 615 615 615 615 615 615 7 615 615 615 615 615 615 615 615 615 0 615 615 615 615 615 615 615 615 615 615 615 615 615 615 615 615
615 615 615 615 615 615 615 615 615 615 615 615 615 615 615 615 615 615 615 615 615 615 615 615 615 615 615 615 5 615 615 615 615 615 615 615 615 615 615 615 615 615 615 615 9 8 615 615 615 615 615 615 19 615 615 615 615 16 615 615 615 615 615 615 615 615 615 615 615 615 615 615 615 615 615 615 615 615 615 615 615 615 0 615 615 615 615 615 615 615 615 615 615 615 17 615 11 615
615 615 615 615 615 615 19 615 615 34 615 615 615 615 615 615 615 615 615 615 62 615 615 615 615 615 615 25 615 615 615 615 615 615 615 615 615 615 615 615 615 615 615 615 615 615 615 23 3 615 615 615 615 615 615 615 615 615 615 615 615 615 615 68 615 615 615 615 615 615 615 615 615 615 615 615 615 615 615 615 615 615 615 0 615 615 615 615 615 6 615 615 615 615 615 615 615 615
615 615 615 615 615 615 615 615 615 615 615 615 615 615 615 615 615 615 13 615 615 615 615 615 615 615 615 615 615 615 615 615 615 615 615 615 615 615 10 615 615 615 615 615 615 615 615 615 615 615 615 615 615 615 615 615 615 615 615 615 11 615 615 615 615 615 615 615 15 615 615 615 615 615 615 10 615 615 615 615 615 615 615 615 0 615 615 615 615 615 615 615 615 615 615 16 615 615
615 615 615 615 615 615 615 615 615 615 615 615 615 615 615 615 615 615 9 615 615 615 615 615 615 615 615 615 615 6 615 6 615 615 615 615 615 615 615 615 615 615 615 615 615 615 615 615 615 615 615 615 615 615 615 615 615 615 615 615 615 615 615 615 615 615 615 615 615 615 615 615 615 615 615 615 615 615 615 615 615 615 615 615 615 0 5 8 615 615 615 615 615 615 615 615 7 615
615 615 615 615 615 615 615 615 615 615 615 615 615 615 615 615 615 615 4 615 615 615 615 615 615 615 615 615 615 615 615 8 615 615 615 615 615 615 615 615 615 615 615 615 615 615 615 615 615 615 615 615 615 615 615 615 615 615 615 615 615 615 615 615 615 615 615 615 615 615 615 615 615 615 615 15 615 615 615 615 615 615 615 615 615 5 0 615 615 615 615 615 615 615 615 615 615 615
615 615 615 615 615 615 615 615 615 615 615 615 615 615 615 615 615 615 13 615 615 615 615 615 615 615 615 615 615 3 615 615 615 615 615 615 615 615 615 615 615 615 615 615 615 615 615 615 615 615 615 615 16 615 615 615 615 615 615 615 615 615 615 615 615 615 615 615 615 615 615 615 615 615 615 615 615 615 615 615 615 615 615 615 615 8 615 0 615 615 615 7 615 615 615 615 615 615
615 615 615 615 615 615 615 615 615 615 615 615 615 615 615 615 23 615 615 615 615 615 615 615 615 615 615 615 615 615 615 615 615 615 615 615 615 615 615 615 615 5 615 615 615 615 13 615 615 615 615 615 615 615 615 615 615 615 615 615 615 20 615 615 615 615 615 615 615 14 615 615 615 615 615 615 7 615 615 615 615 615 615 615 615 615 615 615 0 615 615 615 615 615 615 615 615 6
615 615 615 615 615 615 615 615 615 615 615 615 615 615 615 615 615 615 615 615 615 615 615 615 615 615 615 19 615 615 615 615 615 615 615 615 615 615 615 615 615 615 615 615 615 615 615 615 3 615 615 615 615 615 615 615 615 615 5 615 615 615 615 615 615 615 615 615 615 615 615 615 615 615 615 615 615 615 8 615 615 615 615 6 615 615 615 615 615 0 615 615 615 615 615 615 615 615
615 615 615 615 12 615 615 615 615 615 615 615 615 615 615 615 615 615 615 615 615 10 615 1 615 615 615 615 615 615 615 615 615 615 615 615 615 615 615 615 615 615 615 615 615 615 615 615 615 615 615 615 615 615 615 615 615 615 615 615 615 615 615 615 615 615 615 615 615 615 615 615 615 615 1 615 615 615 615 615 615 615 615 615 615 615 615 615 615 615 0 615 615 615 615 615 615 615
615 615 615 615 615 615 615 615 615 615 615 615 29 615 615 615 615 615 15 615 615 615 615 615 615 615 615 615 615 615 615 615 615 615 615 615 615 27 21 615 615 615 615 615 615 615 615 615 615 615 615 615 20 615 615 615 615 615 615 615 615 615 615 615 615 615 615 615 615 615 615 615 615 615 615 615 615 615 615 615 615 615 615 615 615 615 615 7 615 615 615 0 615 615 615 615 615 615
615 615 615 18 615 615 615 615 615 615 615 615 615 615 615 615 7 615 615 615 615 615 615 615 615 615 615 615 615 615 615 615 17 615 615 615 615 615 615 615 615 615 16 615 615 615 615 615 615 615 615 615 615 615 615 615 16 615 615 615 12 615 615 615 615 615 615 615 615 615 615 615 615 11 615 615 615 17 615 615 7 615 615 615 615 615 615 615 615 615 615 615 0 615 615 615 615 615
615 615 615 615 615 615 615 615 615 615 615 615 12 615 615 615 615 615 615 615 615 615 3 615 10 615 615 615 615 615 615 615 615 615 615 615 615 615 615 615 615 615 615 615 615 615 615 615 615 615 615 615 615 615 615 615 615 10 615 615 615 615 615 615 615 615 615 615 615 615 615 615 615 615 615 615 615 615 615 615 615 615 615 615 615 615 615 615 615 615 615 615 615 0 8 615 615 615
615 615 615 615 615 615 615 615 615 615 615 615 7 615 615 615 615 615 615 615 615 615 615 615 615 615 615 615 615 615 615 615 615 615 615 615 615 615 615 615 615 615 615 615 615 615 615 615 615 615 615 615 11 615 615 615 615 12 615 615 615 615 615 615 615 615 615 615 615 615 615 615 615 615 615 615 615 615 615 615 615 615 17 615 615 615 615 615 615 615 615 615 615 8 0 615 615 615
615 17 615 615 615 615 615 615 615 615 615 615 615 615 615 615 615 615 615 615 615 615 615 615 615 615 615 615 615 615 615 615 615 615 615 615 615 16 10 615 615 615 615 615 615 615 615 615 615 615 615 615 615 615 615 615 615 615 615 24 615 615 615 615 615 615 615 615 20 615 615 615 615 615 615 615 615 615 615 615 615 615 615 615 16 615 615 615 615 615 615 615 615 615 615 0 615 615
615 615 615 615 615 615 615 615 615 615 615 615 615 615 615 615 615 615 615 615 615 615 615 615 615 615 615 615 615 9 615 5 615 615 615 615 615 615 615 615 615 615 615 615 615 12 615 615 615 615 615 615 16 615 615 615 615 615 615 615 615 615 615 615 615 615 615 615 615 615 615 615 615 615 615 615 615 615 615 615 615 615 11 615 615 7 615 615 615 615 615 615 615 615 615 615 0 615
615 615 615 615 615 615 615 615 615 615 615 615 615 615 615 615 615 615 615 12 615 615 615 615 615 615 615 615 615 615 615 615 615 615 615 615 615 615 615 615 615 615 615 615 615 615 10 615 615 615 615 615 615 615 615 615 615 615 615 615 615 16 615 615 615 615 615 615 615 615 615 615 615 615 615 615 615 615 615 615 615 615 615 615 615 615 615 615 6 615 615 615 615 615 615 615 615 0
EOF
